column=9;
row=9;
Board=[|0,0,3,0,0,0,0,9,0|5,0,0,3,6,2,7,0,4|4,7,0,0,0,0,2,6,3|1,0,0,0,0,3,8,0,0|0,0,0,0,0,0,0,0,0|0,0,8,9,0,0,0,2,6|0,0,0,2,0,0,0,0,5|0,0,0,5,0,0,0,4,0|0,0,5,0,0,6,0,8,0|];
horizontal=[|0,1,0,0,0,0,0,1|0,1,0,0,0,0,0,0|0,0,0,1,0,0,0,0|0,0,1,0,1,0,0,0|0,0,0,0,0,0,1,0|0,0,1,0,0,0,1,0|0,0,0,1,0,0,0,0|0,1,0,0,1,1,0,0|0,0,1,1,0,0,1,0|];
vertical=[|1,0,0,0,0,1,0,0,0|1,1,0,0,0,0,0,0,1|0,0,0,0,0,0,0,1,0|1,0,1,0,0,0,0,0,0|1,0,0,0,0,0,0,1,1|0,1,0,0,0,0,0,0,1|1,0,0,0,0,0,0,0,0|0,0,0,1,0,1,0,0,1|];
